TYPE : Vertex Cover
DIMENSION: 25
EDGE_DATA_SECTION:
0 1
0 3
0 5
0 18
0 24
1 6
1 8
1 12
1 19
1 23
2 8
2 21
2 22
2 23
3 5
3 6
3 9
3 23
4 15
4 20
4 22
5 16
5 21
6 7
6 13
6 16
6 20
6 23
7 12
7 13
7 21
7 23
9 10
9 11
9 16
9 22
11 18
11 20
11 22
13 16
13 22
14 21
16 17
16 20
17 19
18 20
18 21
18 23
20 24
22 24
23 24
-1
VERTEX_DEGREE:
5.0 6.0 4.0 5.0 3.0 4.0 7.0 5.0 2.0 5.0 1.0 4.0 2.0 4.0 1.0 1.0 6.0 2.0 5.0 2.0 6.0 5.0 6.0 7.0 4.0
VERTEX_COVER:
1 2 3 4 5 6 7 9 11 13 17 18 20 21 24
EOF
